p cnf 7230 17
-6273 -6274 0
-6023 -6153 -6271 0
-4702 -6109 -6269 0
1672 6151 -6267 0
6023 -6272 0
4702 -6270 0
-1672 -6268 0
6271 6272 0
6269 6270 0
6267 6268 0
6153 -6272 0
6109 -6270 0
-6151 -6268 0
-6027 -6155 6274 0
6265 6266 0
6155 -6274 0
6027 -6274 0
